c This is UnifRandomKSATGenerator
c uniform random 3-SAT generated instance with: 
c clause length: 3 
c number variables: 10 
c number clauses: 43 
c clause to variable ratio: 4.27 
c random number generator name: SHA1PRNG 
c random number generator provider: SUN 
c random number generator seed: 4330750034674560019 
p cnf 10 43
1 -4 7 0
-1 -3 4 0
1 -2 5 0
-1 -5 7 0
1 9 -4 0
-3 -4 6 0
-10 9 -7 0
9 2 5 0
9 -7 -8 0
-10 6 7 0
-10 4 -6 0
2 -4 7 0
-9 4 -8 0
-9 7 -8 0
1 3 -7 0
9 -6 7 0
1 2 -5 0
-1 -3 -5 0
1 -3 -5 0
-1 4 -6 0
-1 2 -4 0
-9 1 -7 0
-3 5 -7 0
4 -5 -8 0
3 -5 -6 0
-9 -10 3 0
-9 5 -7 0
3 5 7 0
9 1 -3 0
9 -3 -5 0
8 -5 -6 0
-10 2 -8 0
10 -3 6 0
2 10 -7 0
2 -3 7 0
1 2 4 0
9 -2 4 0
1 2 7 0
-1 2 10 0
10 -4 -6 0
9 5 6 0
-6 -7 -8 0
-1 -3 -6 0
